CMPL model generation - running

CMPL version: 1.11.0
Authors: Thomas Schleiff, Mike Steglich
Distributed under the GPLv3 

create model instance ...
write model instance ...
CMPL model generation - finished

Solver - running


Welcome to IBM(R) ILOG(R) CPLEX(R) Interactive Optimizer 12.7.1.0
  with Simplex, Mixed Integer & Barrier Optimizers
5725-A06 5725-A29 5724-Y48 5724-Y49 5724-Y54 5724-Y55 5655-Y21
Copyright IBM Corp. 1988, 2017.  All Rights Reserved.

Type 'help' for a list of available commands.
Type 'help' followed by a command name for more
information on commands.

CPLEX> Specified objective sense: MINIMIZE
Selected objective  name:  line[1]
Selected RHS        name:  RHS
Selected bound      name:  BOUND
Problem '/tmp/cmpl.T24811.mps' read.
Read time = 0.08 sec. (8.20 ticks)
CPLEX> CPXPARAM_Read_APIEncoding                        "UTF-8"
Tried aggregator 3 times.
MIP Presolve eliminated 18877 rows and 29992 columns.
MIP Presolve modified 340 coefficients.
Aggregator did 931 substitutions.
Reduced MIP has 2547 rows, 3670 columns, and 10706 nonzeros.
Reduced MIP has 3502 binaries, 0 generals, 0 SOSs, and 0 indicators.
Presolve time = 0.06 sec. (41.30 ticks)
Found incumbent of value 2672.116395 after 0.14 sec. (76.98 ticks)
Probing fixed 42 vars, tightened 0 bounds.
Probing time = 0.02 sec. (4.93 ticks)
Tried aggregator 1 time.
MIP Presolve eliminated 0 rows and 42 columns.
MIP Presolve modified 336 coefficients.
Reduced MIP has 2547 rows, 3628 columns, and 10622 nonzeros.
Reduced MIP has 3628 binaries, 0 generals, 0 SOSs, and 0 indicators.
Presolve time = 0.01 sec. (10.30 ticks)
Probing time = 0.01 sec. (2.71 ticks)
Clique table members: 6527.
MIP emphasis: balance optimality and feasibility.
MIP search method: dynamic search.
Parallel mode: none, using 1 thread.
Root relaxation solution time = 0.01 sec. (11.24 ticks)

        Nodes                                         Cuts/
   Node  Left     Objective  IInf  Best Integer    Best Bound    ItCnt     Gap

*     0+    0                         2672.1164       -2.0234           100.08%
*     0     0      integral     0      814.9595      814.9595      590    0.00%
Elapsed time = 0.21 sec. (114.43 ticks, tree = 0.00 MB, solutions = 2)

Root node processing (before b&c):
  Real time             =    0.21 sec. (115.66 ticks)
Sequential b&c:
  Real time             =    0.00 sec. (0.00 ticks)
                          ------------
Total (root+branch&cut) =    0.21 sec. (115.66 ticks)

Solution pool: 2 solutions saved.

MIP - Integer optimal solution:  Objective =  8.1495951100e+02
Solution time =    0.21 sec.  Iterations = 590  Nodes = 0
Deterministic time = 115.76 ticks  (552.74 ticks/sec)

CPLEX> Incumbent solution written to file '/tmp/cmpl.T24811.gsol'.
CPLEX> 
CMPL: Time used for model generation: 1 seconds
CMPL: Time used for solving the model: 1 seconds


Solution written to ASCII file: results/output_generated_conf_0.9/2017-06-05-4/fair-nonlinear.sol

Solver - finished
